p tw 77 231
0 1
0 4
0 20
0 3
0 8
0 5
0 31
0 30
0 6
0 10
0 42
1 42
1 3
1 4
1 8
1 30
1 31
1 10
1 5
1 6
1 71
2 3
2 32
2 33
2 34
2 35
2 36
3 5
3 6
3 8
3 31
3 10
3 4
3 42
3 30
4 29
4 30
4 10
4 8
4 42
4 31
4 5
4 6
5 6
5 42
5 30
5 10
5 12
5 8
5 31
6 10
6 31
6 42
6 30
6 65
6 8
7 8
7 37
7 38
7 39
7 40
7 41
8 10
8 31
8 30
8 42
9 10
9 44
9 45
9 46
9 47
9 48
10 42
10 30
10 31
11 12
11 13
11 14
11 15
11 16
12 13
12 14
12 15
12 16
13 14
13 15
13 16
14 15
14 16
15 16
17 18
17 19
17 20
17 21
17 22
18 19
18 20
18 21
18 22
19 20
19 21
19 22
20 21
20 22
21 22
23 24
23 25
23 26
23 27
23 28
24 25
24 26
24 27
24 28
25 26
25 27
25 28
26 27
26 28
27 28
28 30
29 60
29 61
29 62
29 63
29 64
30 42
30 31
31 43
31 42
32 33
32 34
32 35
32 36
33 34
33 35
33 36
34 35
34 36
35 36
37 38
37 39
37 40
37 41
38 39
38 40
38 41
39 40
39 41
40 41
42 57
43 49
43 50
43 51
43 52
43 53
44 45
44 46
44 47
44 48
45 46
45 47
45 48
46 47
46 48
47 48
49 50
49 51
49 52
49 53
50 51
50 52
50 53
51 52
51 53
52 53
54 55
54 56
54 57
54 58
54 59
55 56
55 57
55 58
55 59
56 57
56 58
56 59
57 58
57 59
58 59
60 61
60 62
60 63
60 64
61 62
61 63
61 64
62 63
62 64
63 64
65 66
65 67
65 68
65 69
65 70
66 67
66 68
66 69
66 70
67 68
67 69
67 70
68 69
68 70
69 70
71 72
71 73
71 74
71 75
71 76
72 73
72 74
72 75
72 76
73 74
73 75
73 76
74 75
74 76
75 76
